Set parameter TokenServer to value "hpc-licenses.hpcc.usc.edu"
Set parameter TimeLimit to value 3600
Gurobi Optimizer version 9.5.1 build v9.5.1rc2 (linux64)
Thread count: 20 physical cores, 20 logical processors, using up to 20 threads
Optimize a model with 6007 rows, 4529 columns and 24534 nonzeros
Model fingerprint: 0x41454494
Variable types: 4506 continuous, 23 integer (23 binary)
Coefficient statistics:
  Matrix range     [1e+00, 1e+00]
  Objective range  [3e-03, 1e+00]
  Bounds range     [1e+00, 1e+00]
  RHS range        [1e+00, 8e+01]
Found heuristic solution: objective 219.2990784
Presolve removed 1520 rows and 1515 columns
Presolve time: 0.09s
Presolved: 4487 rows, 3014 columns, 21975 nonzeros
Variable types: 2994 continuous, 20 integer (20 binary)

Root relaxation: objective 2.293773e+02, 2381 iterations, 0.10 seconds (0.14 work units)

    Nodes    |    Current Node    |     Objective Bounds      |     Work
 Expl Unexpl |  Obj  Depth IntInf | Incumbent    BestBd   Gap | It/Node Time

     0     0  229.37725    0    5  219.29908  229.37725  4.60%     -    0s
H    0     0                     220.8116104  229.37725  3.88%     -    0s
     0     0  229.19272    0    5  220.81161  229.19272  3.80%     -    0s
     0     0  229.19209    0    5  220.81161  229.19209  3.80%     -    0s
     0     0  229.17597    0    5  220.81161  229.17597  3.79%     -    0s
     0     0  229.17403    0    5  220.81161  229.17403  3.79%     -    0s
H    0     0                     221.8302335  229.17403  3.31%     -    0s
     0     0  229.16622    0    5  221.83023  229.16622  3.31%     -    0s
     0     0  229.16590    0    6  221.83023  229.16590  3.31%     -    0s
H    0     0                     227.1876618  229.16590  0.87%     -    0s
     0     0  229.10958    0    5  227.18766  229.10958  0.85%     -    0s
     0     0  229.10958    0    5  227.18766  229.10958  0.85%     -    1s
H    0     0                     227.3413568  229.10958  0.78%     -    1s
     0     0  229.10958    0    5  227.34136  229.10958  0.78%     -    1s
     0     0  229.10958    0    5  227.34136  229.10958  0.78%     -    1s
     0     0  228.95788    0    5  227.34136  228.95788  0.71%     -    1s
H    0     0                     228.5442637  228.95788  0.18%     -    2s

Cutting planes:
  Gomory: 3
  MIR: 439
  Flow cover: 2
  RLT: 24
  Relax-and-lift: 3

Explored 1 nodes (5026 simplex iterations) in 2.05 seconds (1.02 work units)
Thread count was 20 (of 20 available processors)

Solution count 6: 228.544 227.341 227.188 ... 219.299

Optimal solution found (tolerance 1.00e-04)
Best objective 2.285442636660e+02, best bound 2.285442636660e+02, gap 0.0000%



#########node  1
V1.8
#########node  2
0.22727272727272727,0.7727272727272727
#########node  3
1.0,0.0


Total Solving Time 2.4494853019714355
obj value 228.54426366599267
Policy Regret train (Sum) 6.574261261987341
Best Treatment Found train (%) 61.8
treatment classification acc train (%) 31.6
Policy Regret test (Sum) 108.72835269107836
Best Treatment Found test (%) 63.12
treatment classification acc test (%) 33.79
